561
1   1   0    159  0 13 25 24 43 23 14 18 4 0
1   2   0    43   0 19 40 41 0
2   1   0    0    0 0
2   2   0    30   0 46 47 0
3   1   0    126  0 9 50 34 30 39 33 10 49 0
3   2   0    159  0 11 27 6 48 7 26 8 31 28 1 32 0
4   1   0    105  0 2 22 3 36 35 20 0
4   2   0    155  0 21 5 37 15 45 44 42 17 12 38 16 29 0